\ Model TSP
\ LP format - for model browsing. Use MPS format to capture full model detail.
Minimize
  2 x_0_1 + 8 x_0_2 + x_0_3 + 1000 x_0_4 + 1000 x_0_5 + 1000 x_0_6
   + 1000 x_0_7 + 1000 x_0_8 + 1000 x_0_9 + 1000 x_0_10 + 2 x_1_0 + 6 x_1_2
   + 1000 x_1_3 + x_1_4 + 1000 x_1_5 + 1000 x_1_6 + 1000 x_1_7 + 1000 x_1_8
   + 1000 x_1_9 + 1000 x_1_10 + 8 x_2_0 + 6 x_2_1 + 7 x_2_3 + 5 x_2_4
   + x_2_5 + 2 x_2_6 + 1000 x_2_7 + 1000 x_2_8 + 1000 x_2_9 + 1000 x_2_10
   + x_3_0 + 1000 x_3_1 + 7 x_3_2 + 1000 x_3_4 + 1000 x_3_5 + 9 x_3_6
   + 100 x_3_7 + 100 x_3_8 + 100 x_3_9 + 100 x_3_10 + 100 x_4_0 + x_4_1
   + 5 x_4_2 + 100 x_4_3 + 3 x_4_5 + 100 x_4_6 + 2 x_4_7 + 100 x_4_8
   + 100 x_4_9 + 100 x_4_10 + 100 x_5_0 + 100 x_5_1 + x_5_2 + 100 x_5_3
   + 3 x_5_4 + 4 x_5_6 + 100 x_5_7 + 6 x_5_8 + 100 x_5_9 + 100 x_5_10
   + 100 x_6_0 + 100 x_6_1 + 2 x_6_2 + 9 x_6_3 + 100 x_6_4 + 4 x_6_5
   + 100 x_6_7 + 3 x_6_8 + x_6_9 + 100 x_6_10 + 100 x_7_0 + 100 x_7_1
   + 100 x_7_2 + 100 x_7_3 + 2 x_7_4 + 100 x_7_5 + 100 x_7_6 + 7 x_7_8
   + 100 x_7_9 + 9 x_7_10 + 100 x_8_0 + 100 x_8_1 + 100 x_8_2 + 100 x_8_3
   + 100 x_8_4 + 6 x_8_5 + 3 x_8_6 + 7 x_8_7 + x_8_9 + 2 x_8_10 + 100 x_9_0
   + 100 x_9_1 + 100 x_9_2 + 100 x_9_3 + 100 x_9_4 + 100 x_9_5 + x_9_6
   + 100 x_9_7 + x_9_8 + 4 x_9_10 + 100 x_10_0 + 100 x_10_1 + 100 x_10_2
   + 100 x_10_3 + 100 x_10_4 + 100 x_10_5 + 100 x_10_6 + 100 x_10_7
   + 9 x_10_8 + 2 x_10_9
Subject To
 visit_10start: x_0_1 + x_0_2 + x_0_3 + x_0_4 + x_0_5 + x_0_6 + x_0_7
   + x_0_8 + x_0_9 = 1
 visit_10end: x_1_10 + x_2_10 + x_3_10 + x_4_10 + x_5_10 + x_6_10 + x_7_10
   + x_8_10 + x_9_10 = 1
 visit_1balance_flow: x_0_1 - x_1_2 - x_1_3 - x_1_4 - x_1_5 - x_1_6 - x_1_7
   - x_1_8 - x_1_9 - x_1_10 + x_2_1 + x_3_1 + x_4_1 + x_5_1 + x_6_1 + x_7_1
   + x_8_1 + x_9_1 = 0
 visit_2balance_flow: x_0_2 + x_1_2 - x_2_1 - x_2_3 - x_2_4 - x_2_5 - x_2_6
   - x_2_7 - x_2_8 - x_2_9 - x_2_10 + x_3_2 + x_4_2 + x_5_2 + x_6_2 + x_7_2
   + x_8_2 + x_9_2 = 0
 visit_3balance_flow: x_0_3 + x_1_3 + x_2_3 - x_3_1 - x_3_2 - x_3_4 - x_3_5
   - x_3_6 - x_3_7 - x_3_8 - x_3_9 - x_3_10 + x_4_3 + x_5_3 + x_6_3 + x_7_3
   + x_8_3 + x_9_3 = 0
 visit_4balance_flow: x_0_4 + x_1_4 + x_2_4 + x_3_4 - x_4_1 - x_4_2 - x_4_3
   - x_4_5 - x_4_6 - x_4_7 - x_4_8 - x_4_9 - x_4_10 + x_5_4 + x_6_4 + x_7_4
   + x_8_4 + x_9_4 = 0
 visit_5balance_flow: x_0_5 + x_1_5 + x_2_5 + x_3_5 + x_4_5 - x_5_1 - x_5_2
   - x_5_3 - x_5_4 - x_5_6 - x_5_7 - x_5_8 - x_5_9 - x_5_10 + x_6_5 + x_7_5
   + x_8_5 + x_9_5 = 0
 visit_6balance_flow: x_0_6 + x_1_6 + x_2_6 + x_3_6 + x_4_6 + x_5_6 - x_6_1
   - x_6_2 - x_6_3 - x_6_4 - x_6_5 - x_6_7 - x_6_8 - x_6_9 - x_6_10 + x_7_6
   + x_8_6 + x_9_6 = 0
 visit_7balance_flow: x_0_7 + x_1_7 + x_2_7 + x_3_7 + x_4_7 + x_5_7 + x_6_7
   - x_7_1 - x_7_2 - x_7_3 - x_7_4 - x_7_5 - x_7_6 - x_7_8 - x_7_9 - x_7_10
   + x_8_7 + x_9_7 = 0
 visit_8balance_flow: x_0_8 + x_1_8 + x_2_8 + x_3_8 + x_4_8 + x_5_8 + x_6_8
   + x_7_8 - x_8_1 - x_8_2 - x_8_3 - x_8_4 - x_8_5 - x_8_6 - x_8_7 - x_8_9
   - x_8_10 + x_9_8 = 0
 visit_9balance_flow: x_0_9 + x_1_9 + x_2_9 + x_3_9 + x_4_9 + x_5_9 + x_6_9
   + x_7_9 + x_8_9 - x_9_1 - x_9_2 - x_9_3 - x_9_4 - x_9_5 - x_9_6 - x_9_7
   - x_9_8 - x_9_10 = 0
Bounds
Binaries
 x_0_1 x_0_2 x_0_3 x_0_4 x_0_5 x_0_6 x_0_7 x_0_8 x_0_9 x_0_10 x_1_0 x_1_2
 x_1_3 x_1_4 x_1_5 x_1_6 x_1_7 x_1_8 x_1_9 x_1_10 x_2_0 x_2_1 x_2_3 x_2_4
 x_2_5 x_2_6 x_2_7 x_2_8 x_2_9 x_2_10 x_3_0 x_3_1 x_3_2 x_3_4 x_3_5 x_3_6
 x_3_7 x_3_8 x_3_9 x_3_10 x_4_0 x_4_1 x_4_2 x_4_3 x_4_5 x_4_6 x_4_7 x_4_8
 x_4_9 x_4_10 x_5_0 x_5_1 x_5_2 x_5_3 x_5_4 x_5_6 x_5_7 x_5_8 x_5_9 x_5_10
 x_6_0 x_6_1 x_6_2 x_6_3 x_6_4 x_6_5 x_6_7 x_6_8 x_6_9 x_6_10 x_7_0 x_7_1
 x_7_2 x_7_3 x_7_4 x_7_5 x_7_6 x_7_8 x_7_9 x_7_10 x_8_0 x_8_1 x_8_2 x_8_3
 x_8_4 x_8_5 x_8_6 x_8_7 x_8_9 x_8_10 x_9_0 x_9_1 x_9_2 x_9_3 x_9_4 x_9_5
 x_9_6 x_9_7 x_9_8 x_9_10 x_10_0 x_10_1 x_10_2 x_10_3 x_10_4 x_10_5 x_10_6
 x_10_7 x_10_8 x_10_9
End
